
100
8341

336 156
224 104
1160 370
696 222
392 182
116 37
336 156
448 208
232 74
696 222
168 78
812 259
280 130
448 208
224 104
928 296
232 74
168 78
56 26
112 52
580 185
1160 370
1160 370
168 78
112 52
448 208
56 26
348 111
504 234
232 74
928 296
448 208
560 260
560 260
696 222
112 52
580 185
348 111
336 156
464 148
336 156
336 156
112 52
696 222
112 52
1044 333
392 182
168 78
232 74
448 208
392 182
392 182
392 182
580 185
168 78
928 296
348 111
928 296
464 148
448 208
812 259
348 111
560 260
448 208
280 130
696 222
348 111
348 111
448 208
112 52
928 296
928 296
392 182
560 260
168 78
812 259
224 104
560 260
280 130
232 74
168 78
560 260
812 259
1044 333
168 78
928 296
448 208
392 182
560 260
56 26
392 182
1160 370
112 52
116 37
168 78
112 52
168 78
280 130
392 182
232 74
